14	9	10	15	8	4	5	4	8	12
14	9	20	13	3	2	9	3	18	12
5	3	13	19	5	2	14	10	17	7
5	19	11	16	18	9	20	16	3	6
9	17	1	15	10	13	4	5	19	15
8	5	17	13	16	10	2	11	12	12
11	13	14	15	10	3	19	18	16	8
16	10	10	9	3	9	12	13	17	9
11	13	10	18	7	11	12	6	12	12
3	14	3	3	7	18	2	4	13	19
13	14	11	3	16	13	15	2	19	12
5	18	18	5	2	20	5	8	12	10
19	8	18	9	9	1	19	7	10	1
16	5	16	17	9	15	5	3	18	7
17	17	8	4	3	1	14	6	13	18
14	15	4	11	19	4	16	11	12	17
16	10	5	9	16	18	19	9	16	11
15	17	1	15	7	10	3	6	4	10
2	14	2	16	6	4	15	3	14	4
